GLPSOL--GLPK LP/MIP Solver 5.0
Parameter(s) specified in the command line:
 --lp ../modeles/20_444.lp --log 20_444.log
Reading problem data from '../modeles/20_444.lp'...
8961 rows, 17800 columns, 62220 non-zeros
8880 integer variables, all of which are binary
26787 lines were read
GLPK Integer Optimizer 5.0
8961 rows, 17800 columns, 62220 non-zeros
8880 integer variables, all of which are binary
Preprocessing...
8760 constraint coefficient(s) were reduced
8961 rows, 17780 columns, 62200 non-zeros
8880 integer variables, all of which are binary
Scaling...
 A: min|aij| =  8.116e-05  max|aij| =  4.000e+00  ratio =  4.928e+04
GM: min|aij| =  6.712e-02  max|aij| =  1.490e+01  ratio =  2.220e+02
EQ: min|aij| =  4.505e-03  max|aij| =  1.000e+00  ratio =  2.220e+02
2N: min|aij| =  3.906e-03  max|aij| =  1.705e+00  ratio =  4.366e+02
Constructing initial basis...
Size of triangular part is 8961
Solving LP relaxation...
GLPK Simplex Optimizer 5.0
8961 rows, 17780 columns, 62200 non-zeros
      0: obj =   4.000000000e+01 inf =   1.142e+03 (41)
Perturbing LP to avoid stalling [199]...
    619: obj =   2.310907744e-01 inf =   0.000e+00 (0)
Removing LP perturbation [1652]...
*  1652: obj =  -4.471594043e+00 inf =   2.870e-13 (0) 1
OPTIMAL LP SOLUTION FOUND
Integer optimization begins...
Long-step dual simplex will be used
+  1652: mip =     not found yet >=              -inf        (1; 0)
+  1823: mip =     not found yet >=  -4.471594043e+00        (172; 0)
+  1982: mip =     not found yet >=  -4.471594043e+00        (331; 0)
+  2144: mip =     not found yet >=  -4.471594043e+00        (492; 0)
+  2361: mip =     not found yet >=  -4.471594043e+00        (709; 0)
+  2597: mip =     not found yet >=  -4.471594043e+00        (944; 0)
+  2855: mip =     not found yet >=  -4.471594043e+00        (1202; 0)
+  3056: >>>>>  -4.471594043e+00 >=  -4.471594043e+00 < 0.1% (1401; 0)
+  3056: mip =  -4.471594043e+00 >=     tree is empty   0.0% (0; 2801)
INTEGER OPTIMAL SOLUTION FOUND
Time used:   35.5 secs
Memory used: 26.0 Mb (27225236 bytes)
